129
0 126 97 119 79 99 43 86 124 10 
35 75 117 25 24 56 28 29 120 40 
54 7 123 96 19 49 95 121 22 4 
84 50 61 13 57 15 6 39 81 52 
77 31 88 112 23 108 60 102 58 44 
37 90 46 128 122 20 104 48 63 30 
36 111 78 87 110 85 14 34 92 12 
89 51 33 9 127 55 76 53 116 101 
68 70 45 71 94 125 82 66 16 115 
2 83 80 32 8 105 109 3 91 67 
41 113 5 72 103 26 100 17 74 21 
65 114 1 47 42 59 27 93 73 107 
18 64 62 11 118 98 69 38 106 
